npieces = 15;	
nplayers = 50;	
duration = [9, 10, 8, 2, 2, 10, 10, 6, 2, 5, 8, 9, 3, 6, 9];
rehearsal = [[1, 1, 1, 1, 1, 1, 1, 1, 1, 1, 1, 1, 1, 0, 0], [1, 1, 1, 0, 0, 0, 1, 1, 1, 1, 1, 1, 1, 0, 1], [1, 0, 1, 1, 0, 1, 1, 1, 1, 1, 1, 0, 1, 1, 0], [1, 1, 1, 1, 1, 1, 1, 1, 1, 0, 1, 1, 1, 0, 0], [1, 1, 0, 1, 1, 1, 0, 1, 1, 1, 1, 0, 0, 1, 1], [0, 1, 1, 1, 0, 1, 1, 1, 0, 1, 0, 1, 1, 1, 0], [1, 0, 1, 1, 0, 0, 0, 1, 1, 1, 1, 0, 1, 0, 1], [1, 1, 1, 1, 1, 0, 1, 1, 1, 0, 1, 1, 1, 1, 0], [1, 1, 0, 1, 1, 1, 0, 1, 0, 1, 0, 1, 1, 0, 0], [1, 1, 0, 1, 1, 1, 1, 0, 1, 1, 1, 1, 1, 1, 1], [1, 1, 1, 1, 0, 1, 1, 0, 0, 0, 0, 1, 1, 1, 0], [1, 1, 1, 1, 0, 0, 1, 1, 0, 1, 1, 1, 0, 1, 1], [0, 1, 1, 1, 1, 1, 1, 1, 1, 1, 1, 1, 1, 1, 1], [1, 0, 0, 1, 1, 1, 1, 1, 0, 1, 1, 0, 1, 1, 0], [1, 0, 0, 0, 0, 1, 1, 0, 1, 1, 0, 1, 1, 1, 1], [1, 1, 1, 0, 0, 1, 1, 1, 1, 1, 1, 0, 1, 1, 1], [1, 0, 1, 1, 1, 0, 1, 1, 1, 1, 1, 1, 1, 1, 0], [0, 1, 1, 1, 1, 0, 0, 1, 1, 0, 1, 0, 1, 0, 1], [1, 1, 0, 1, 0, 1, 0, 1, 1, 0, 0, 1, 1, 0, 1], [1, 0, 0, 0, 1, 0, 1, 0, 1, 1, 1, 1, 1, 1, 1], [1, 1, 0, 0, 1, 1, 1, 1, 1, 1, 1, 1, 1, 0, 1], [1, 0, 0, 1, 1, 1, 1, 1, 1, 0, 1, 0, 1, 0, 0], [1, 1, 1, 1, 1, 0, 0, 1, 1, 0, 1, 1, 1, 1, 1], [0, 1, 1, 1, 1, 1, 1, 1, 1, 0, 1, 0, 1, 1, 1], [1, 0, 0, 1, 1, 0, 1, 0, 0, 1, 0, 1, 1, 1, 1], [1, 1, 1, 1, 1, 1, 0, 0, 1, 1, 1, 1, 0, 1, 0], [0, 0, 0, 1, 1, 0, 1, 1, 0, 1, 0, 1, 0, 0, 1], [1, 1, 1, 1, 1, 0, 0, 1, 0, 0, 0, 1, 1, 0, 1], [1, 1, 1, 1, 1, 1, 1, 1, 1, 1, 0, 1, 1, 1, 0], [0, 1, 1, 1, 0, 1, 1, 1, 1, 1, 1, 1, 0, 0, 1], [1, 1, 1, 1, 0, 1, 1, 0, 1, 1, 1, 0, 1, 1, 1], [1, 1, 1, 1, 0, 1, 1, 1, 1, 1, 0, 0, 1, 0, 1], [1, 0, 1, 0, 1, 0, 1, 1, 1, 1, 1, 0, 1, 0, 1], [1, 1, 0, 1, 1, 0, 1, 1, 0, 1, 0, 1, 1, 1, 1], [1, 1, 1, 1, 1, 1, 0, 0, 0, 1, 0, 0, 0, 0, 0], [0, 1, 1, 1, 1, 1, 1, 0, 1, 1, 1, 0, 1, 0, 0], [1, 1, 1, 0, 1, 1, 1, 0, 1, 0, 0, 1, 0, 1, 1], [1, 1, 1, 1, 1, 1, 0, 1, 1, 1, 0, 0, 1, 0, 0], [1, 1, 0, 1, 1, 1, 0, 1, 1, 1, 1, 0, 0, 1, 1], [0, 1, 1, 1, 1, 1, 1, 1, 0, 1, 1, 1, 1, 1, 1], [1, 0, 1, 1, 1, 0, 0, 0, 0, 1, 1, 1, 1, 0, 1], [1, 1, 0, 1, 1, 1, 1, 1, 1, 1, 1, 0, 1, 0, 1], [1, 1, 1, 1, 0, 1, 1, 1, 1, 0, 1, 0, 1, 0, 1], [0, 1, 0, 1, 1, 0, 1, 0, 0, 1, 0, 0, 1, 1, 1], [0, 1, 0, 0, 1, 1, 0, 1, 1, 1, 1, 0, 1, 1, 0], [0, 1, 1, 0, 1, 0, 1, 1, 0, 1, 1, 1, 1, 1, 1], [1, 1, 0, 1, 0, 0, 1, 1, 1, 1, 1, 1, 0, 1, 1], [1, 1, 1, 0, 0, 0, 0, 1, 1, 1, 1, 1, 1, 0, 1], [1, 1, 0, 0, 0, 1, 0, 0, 1, 1, 0, 1, 0, 1, 0], [1, 0, 1, 1, 1, 0, 1, 1, 1, 1, 1, 1, 1, 0, 1]];